int NumberPatients = 297
int NumberOfRooms = 2
int NumberSurgeons = 15
int NumberOfDays = 6
Duration = [241,231,40,202,231,167,173,150,52,241,150,202,150,150,150,150,231,155,231,150,167,145,150,155,290,150,167,231,226,167,150,155,161,206,167,167,167,161,231,190,155,150,355,150,150,167,40,150,425,155,150,150,425,226,231,420,167,150,155,150,241,352,231,175,150,167,155,673,150,150,150,145,150,167,161,167,150,165,150,150,376,86,161,167,150,150,120,150,150,229,231,376,165,150,36,155,150,150,40,40,40,150,167,175,161,40,167,175,175,206,175,150,155,150,155,150,131,150,86,665,150,290,150,150,131,167,288,150,304,161,150,124,241,673,420,161,167,150,52,150,231,167,176,167,176,304,203,150,260,150,167,167,167,119,167,120,167,167,167,165,150,167,150,150,180,167,150,155,150,167,167,673,290,150,150,247,40,158,175,155,161,150,86,86,150,290,175,231,40,167,175,150,40,40,167,167,167,222,167,175,673,150,86,165,150,155,150,175,167,155,155,155,155,30,235,40,665,165,86,167,161,231,167,226,175,150,167,161,167,155,180,150,420,57,158,86,86,145,175,161,131,161,40,167,150,150,30,158,304,241,161,175,150,165,231,150,60,161,167,150,673,157,180,150,40,150,304,167,185,241,167,185,420,150,167,304,150,150,150,150,241,260,150,376,167,167,150,60,150,150,150,167,150,150,150,150,60];
Priority = [0,0,0,0,0,0,0,0,0,0,0,0,0,0,0,0,0,0,0,0,0,0,0,0,0,0,0,0,0,0,0,0,0,0,0,0,0,0,0,0,0,0,0,0,0,0,0,0,0,0,0,0,0,0,0,0,0,0,0,0,0,0,0,0,0,0,0,0,0,0,0,0,0,0,0,0,0,0,0,0,0,0,0,0,0,0,0,0,0,0,0,0,0,0,0,0,0,0,0,0,0,0,0,0,0,0,0,0,0,0,0,0,0,0,0,0,0,0,0,0,0,0,0,0,0,0,0,0,0,0,0,0,0,0,0,0,0,0,0,0,0,0,0,0,0,0,0,0,0,0,0,0,0,0,0,0,0,0,0,0,0,0,0,0,0,0,0,0,0,0,0,0,0,0,0,0,0,0,0,0,0,0,0,0,0,0,0,0,0,0,0,0,0,0,0,0,0,0,0,0,0,0,0,0,0,0,0,0,0,0,0,0,0,0,0,0,0,0,0,0,0,0,0,0,0,0,0,0,0,0,0,0,0,0,0,0,0,0,0,0,0,0,0,0,0,0,0,0,0,0,0,0,0,0,0,0,0,0,0,0,0,0,0,0,0,0,0,0,0,0,0,0,0,0,0,0,0,0,0,0,0,0,0,0,0,0,0,0,0,0,0,0,0,0,0,0,0];
Waiting = [207,305,309,211,212,211,211,214,214,214,218,316,239,296,221,221,221,219,326,295,339,261,225,382,205,267,406,219,221,247,235,303,470,225,253,252,255,200,200,276,256,256,287,284,228,294,195,193,193,191,190,190,186,183,183,179,179,179,177,177,176,172,172,170,169,168,165,165,158,158,158,157,155,154,154,154,154,153,151,151,151,150,148,148,148,147,147,144,144,144,144,143,142,140,137,137,137,137,137,135,135,134,133,130,128,127,126,126,126,126,126,123,123,123,123,123,123,122,122,121,120,120,119,116,120,115,114,114,113,113,113,112,109,107,107,107,106,106,106,106,106,106,105,105,102,102,102,102,102,99,99,98,98,98,98,98,95,95,95,93,93,92,92,93,87,87,85,85,84,84,84,83,81,81,81,81,81,81,81,81,81,80,80,80,77,74,74,74,73,73,73,72,72,70,70,70,70,70,70,70,67,66,66,65,64,64,64,63,60,60,60,60,60,60,60,60,60,60,59,58,58,58,57,57,56,56,56,56,53,53,53,53,53,52,52,52,52,51,51,51,51,51,50,50,50,49,46,46,46,46,46,45,44,44,44,44,44,44,43,43,41,38,38,37,37,36,35,35,35,35,35,35,33,32,32,32,32,32,32,32,32,32,31,31,31,31,30,30,30,30,30,30,30,30,30,30,30];

Surgeon = [1,1,2,2,3,2,2,4,4,4,2,2,5,3,4,4,1,6,1,2,7,3,2,1,3,2,3,3,4,8,4,6,5,2,2,9,10,1,1,7,4,4,3,4,4,8,3,4,4,6,2,2,4,5,5,3,3,4,8,6,5,3,3,8,2,8,4,4,4,4,4,7,5,8,3,8,3,3,4,4,4,7,5,5,2,3,3,4,4,4,1,11,12,3,4,4,4,5,1,12,12,5,8,4,12,5,8,13,9,3,3,4,4,4,4,3,1,7,7,6,2,5,3,4,2,7,6,6,5,5,5,14,1,12,9,12,5,2,2,5,5,5,8,8,4,4,4,4,4,2,2,8,8,13,8,13,3,3,3,12,6,2,2,6,10,10,5,5,3,3,8,3,4,4,4,15,14,15,15,4,3,11,7,7,3,4,4,4,7,10,10,14,14,9,3,3,3,3,8,8,4,7,7,12,2,5,14,10,15,4,4,4,4,4,15,4,1,1,7,8,12,6,5,2,3,3,13,3,4,4,3,3,1,7,10,7,7,6,6,12,6,12,6,5,2,11,4,4,4,4,1,10,6,6,4,6,6,6,5,2,3,10,10,6,6,5,3,9,3,3,3,3,3,4,4,4,4,4,4,1,1,1,5,5,5,10,6,6,11,6,12,6,14,6,6,14,14];
BlockAvailability = [[[1,1],[1,1]],[[1,1],[1,1]],[[1,1],[1,1]],[[1,1],[1,1]],[[1,1],[1,1]],[[0,0],[0,0]]];
SurgeonAvailability = [[[1,1],[1,1],[1,1],[1,1],[1,1],[1,1]],[[1,1],[1,1],[1,1],[1,1],[1,1],[1,1]],[[1,1],[1,1],[1,1],[1,1],[1,1],[1,1]],[[1,1],[1,1],[1,1],[1,1],[1,1],[1,1]],[[1,1],[1,1],[1,1],[1,1],[1,1],[1,1]],[[1,1],[1,1],[1,1],[1,1],[1,1],[1,1]],[[1,1],[1,1],[1,1],[1,1],[1,1],[1,1]],[[1,1],[1,1],[1,1],[1,1],[1,1],[1,1]],[[1,1],[1,1],[1,1],[1,1],[1,1],[1,1]],[[1,1],[1,1],[1,1],[1,1],[1,1],[1,1]],[[1,1],[1,1],[1,1],[1,1],[1,1],[1,1]],[[1,1],[1,1],[1,1],[1,1],[1,1],[1,1]],[[1,1],[1,1],[1,1],[1,1],[1,1],[1,1]],[[1,1],[1,1],[1,1],[1,1],[1,1],[1,1]],[[1,1],[1,1],[1,1],[1,1],[1,1],[1,1]]];
